p cnf 1313 821
-1064 1181 0
-1181 1064 0
-1183 -1184 0
-1066 1183 0
-1067 1184 0
-1183 1066 0
-1184 1067 0
-1186 -1187 0
-1069 1186 0
-1070 1187 0
-1186 1069 0
-1187 1070 0
-1189 -1190 0
-1189 -1191 0
-1190 -1191 0
-1072 1189 0
-1073 1190 0
-1074 1191 0
-1189 1072 0
-1190 1073 0
-1191 1074 0
-1193 -1194 0
-1076 1193 0
-1077 1194 0
-1193 1076 0
-1194 1077 0
-1196 -1197 0
-1196 -1198 0
-1197 -1198 0
-1079 1196 0
-1080 1197 0
-1081 1198 0
-1196 1079 0
-1197 1080 0
-1198 1081 0
-1200 -1201 0
-1083 1200 0
-1084 1201 0
-1200 1083 0
-1201 1084 0
-1203 -1204 0
-1203 -1205 0
-1204 -1205 0
-1086 1203 0
-1087 1204 0
-1088 1205 0
-1203 1086 0
-1204 1087 0
-1205 1088 0
-1207 -1208 0
-1090 1207 0
-1091 1208 0
-1207 1090 0
-1208 1091 0
-1210 -1211 0
-1210 -1212 0
-1211 -1212 0
-1093 1210 0
-1094 1212 0
-1095 1211 0
-1096 1212 0
-1210 1093 0
-1211 1095 0
-1212 1094 1096 0
-1215 1220 1221 1222 1223 1224 0
-1220 -1221 0
-1220 -1222 0
-1220 -1223 0
-1220 -1224 0
-1221 -1222 0
-1221 -1223 0
-1221 -1224 0
-1222 -1223 0
-1222 -1224 0
-1223 -1224 0
-1215 1225 1226 1227 1228 1229 1230 1231 0
-1225 -1226 0
-1225 -1227 0
-1225 -1228 0
-1225 -1229 0
-1225 -1230 0
-1225 -1231 0
-1226 -1227 0
-1226 -1228 0
-1226 -1229 0
-1226 -1230 0
-1226 -1231 0
-1227 -1228 0
-1227 -1229 0
-1227 -1230 0
-1227 -1231 0
-1228 -1229 0
-1228 -1230 0
-1228 -1231 0
-1229 -1230 0
-1229 -1231 0
-1230 -1231 0
-1215 1232 1233 1234 1235 1236 1237 1238 1239 0
-1232 -1233 0
-1232 -1234 0
-1232 -1235 0
-1232 -1236 0
-1232 -1237 0
-1232 -1238 0
-1232 -1239 0
-1233 -1234 0
-1233 -1235 0
-1233 -1236 0
-1233 -1237 0
-1233 -1238 0
-1233 -1239 0
-1234 -1235 0
-1234 -1236 0
-1234 -1237 0
-1234 -1238 0
-1234 -1239 0
-1235 -1236 0
-1235 -1237 0
-1235 -1238 0
-1235 -1239 0
-1236 -1237 0
-1236 -1238 0
-1236 -1239 0
-1237 -1238 0
-1237 -1239 0
-1238 -1239 0
-1215 1217 0
-1215 1219 0
-1215 1218 0
-1214 -1215 0
-1223 -1225 -1217 1141 0
-1223 -1230 -1217 1149 0
-1223 -1226 -1217 1128 0
-1221 -1229 -1217 1129 0
-1223 -1231 -1217 1131 0
-1220 -1226 -1217 1132 0
-1222 -1226 -1217 1144 0
-1224 -1229 -1217 1160 0
-1222 -1231 -1217 1134 0
-1223 -1228 -1217 1135 0
-1222 -1229 -1217 1153 0
-1220 -1229 -1217 1145 0
-1224 -1230 -1217 1137 0
-1224 -1226 -1217 1161 0
-1220 -1230 -1217 1162 0
-1223 -1227 -1217 1155 0
-1221 -1226 -1217 1156 0
-1224 -1225 -1217 1139 0
-1224 -1227 -1217 1157 0
-1221 -1231 -1217 1148 0
-1224 -1231 -1217 1140 0
-1223 -1229 -1217 1159 0
-1220 -1231 -1217 1164 0
-1221 -1227 -1217 1165 0
-1220 -1227 -1217 1166 0
-1220 -1218 1019 0
-1223 -1218 1007 0
-1221 -1218 1004 0
-1224 -1218 1026 0
-1222 -1218 1018 0
-1236 -1219 1152 0
-1235 -1219 1126 0
-1237 -1219 1127 0
-1233 -1219 1146 0
-1232 -1219 1151 0
-1234 -1219 1143 0
-1238 -1219 1158 0
-1239 -1219 1133 0
-1215 -1224 -1228 0
-1215 -1222 -1230 0
-1215 -1222 -1228 0
-1215 -1222 -1225 0
-1215 -1222 -1227 0
-1215 -1221 -1230 0
-1215 -1221 -1228 0
-1215 -1221 -1225 0
-1215 -1220 -1228 0
-1215 -1220 -1225 0
-1215 -1224 -1238 0
-1215 -1224 -1235 0
-1215 -1223 -1238 0
-1215 -1222 -1237 0
-1215 -1222 -1234 0
-1215 -1222 -1238 0
-1215 -1222 -1235 0
-1215 -1222 -1232 0
-1215 -1221 -1237 0
-1215 -1221 -1238 0
-1215 -1221 -1235 0
-1215 -1221 -1232 0
-1215 -1220 -1238 0
-1215 -1220 -1235 0
-1215 -1220 -1232 0
-1124 1215 0
-1123 1214 0
-1214 1123 0
-1215 1124 0
-1240 1244 0
-1242 1244 0
-1241 -1244 0
-1243 -1244 0
-1126 1245 -1215 1235 0
-1126 1245 1215 0
1126 -1245 -1215 1224 0
1126 -1245 1215 0
-1127 1246 -1215 1237 0
-1127 1246 1215 0
1127 -1246 -1215 1221 0
1127 -1246 1215 0
-1128 1247 -1215 -1223 1226 0
-1128 1247 -1215 1223 0
-1128 1247 1215 0
1128 -1247 -1215 -1223 1233 0
1128 -1247 -1215 1223 0
1128 -1247 1215 0
-1129 1248 -1215 -1221 1229 0
-1129 1248 -1215 1221 0
-1129 1248 1215 0
1129 -1248 -1215 -1221 1236 0
1129 -1248 -1215 1221 0
1129 -1248 1215 0
-1131 1249 -1215 -1223 1231 0
-1131 1249 -1215 1223 0
-1131 1249 1215 0
1131 -1249 -1215 -1223 1239 0
1131 -1249 -1215 1223 0
1131 -1249 1215 0
-1132 1250 -1215 -1220 1226 0
-1132 1250 -1215 1220 0
-1132 1250 1215 0
1132 -1250 -1215 -1220 1233 0
1132 -1250 -1215 1220 0
1132 -1250 1215 0
-1133 1251 -1215 1239 0
-1133 1251 1215 0
1133 -1251 0
-1134 1252 -1215 -1222 1231 0
-1134 1252 -1215 1222 0
-1134 1252 1215 0
1134 -1252 -1215 -1222 1239 0
1134 -1252 -1215 1222 0
1134 -1252 1215 0
-1000 1253 0
1000 -1253 -1215 1231 0
1000 -1253 1215 0
-1135 1254 -1215 -1223 1228 0
-1135 1254 -1215 1223 0
-1135 1254 1215 0
1135 -1254 -1215 -1223 1235 0
1135 -1254 -1215 1223 0
1135 -1254 1215 0
-1137 1255 -1215 -1224 1230 0
-1137 1255 -1215 1224 0
-1137 1255 1215 0
1137 -1255 -1215 -1224 1237 0
1137 -1255 -1215 1224 0
1137 -1255 1215 0
-1004 1256 -1215 1221 0
-1004 1256 1215 0
1004 -1256 -1215 1230 0
1004 -1256 1215 0
-1139 1257 -1215 -1224 1225 0
-1139 1257 -1215 1224 0
-1139 1257 1215 0
1139 -1257 -1215 -1224 1232 0
1139 -1257 -1215 1224 0
1139 -1257 1215 0
-1007 1258 -1215 1223 0
-1007 1258 1215 0
1007 -1258 0
-1140 1259 -1215 -1224 1231 0
-1140 1259 -1215 1224 0
-1140 1259 1215 0
1140 -1259 -1215 -1224 1239 0
1140 -1259 -1215 1224 0
1140 -1259 1215 0
-1141 1260 -1215 -1223 1225 0
-1141 1260 -1215 1223 0
-1141 1260 1215 0
1141 -1260 -1215 -1223 1232 0
1141 -1260 -1215 1223 0
1141 -1260 1215 0
-1143 1261 -1215 1234 0
-1143 1261 1215 0
1143 -1261 -1215 1222 0
1143 -1261 1215 0
-1011 1262 0
1011 -1262 -1215 1229 0
1011 -1262 1215 0
-1144 1263 -1215 -1222 1226 0
-1144 1263 -1215 1222 0
-1144 1263 1215 0
1144 -1263 -1215 -1222 1233 0
1144 -1263 -1215 1222 0
1144 -1263 1215 0
-1145 1264 -1215 -1220 1229 0
-1145 1264 -1215 1220 0
-1145 1264 1215 0
1145 -1264 -1215 -1220 1236 0
1145 -1264 -1215 1220 0
1145 -1264 1215 0
-1146 1265 -1215 1233 0
-1146 1265 1215 0
1146 -1265 0
-1148 1266 -1215 -1221 1231 0
-1148 1266 -1215 1221 0
-1148 1266 1215 0
1148 -1266 -1215 -1221 1239 0
1148 -1266 -1215 1221 0
1148 -1266 1215 0
-1149 1267 -1215 -1223 1230 0
-1149 1267 -1215 1223 0
-1149 1267 1215 0
1149 -1267 -1215 -1223 1237 0
1149 -1267 -1215 1223 0
1149 -1267 1215 0
-1151 1268 -1215 1232 0
-1151 1268 1215 0
1151 -1268 -1215 1220 0
1151 -1268 1215 0
-1018 1269 -1215 1222 0
-1018 1269 1215 0
1018 -1269 -1215 1227 0
1018 -1269 1215 0
-1152 1270 -1215 1236 0
-1152 1270 1215 0
1152 -1270 0
-1019 1271 -1215 1220 0
-1019 1271 1215 0
1019 -1271 -1215 1225 0
1019 -1271 1215 0
-1153 1272 -1215 -1222 1229 0
-1153 1272 -1215 1222 0
-1153 1272 1215 0
1153 -1272 -1215 -1222 1236 0
1153 -1272 -1215 1222 0
1153 -1272 1215 0
-1155 1273 -1215 -1223 1227 0
-1155 1273 -1215 1223 0
-1155 1273 1215 0
1155 -1273 -1215 -1223 1234 0
1155 -1273 -1215 1223 0
1155 -1273 1215 0
-1156 1274 -1215 -1221 1226 0
-1156 1274 -1215 1221 0
-1156 1274 1215 0
1156 -1274 -1215 -1221 1233 0
1156 -1274 -1215 1221 0
1156 -1274 1215 0
-1157 1275 -1215 -1224 1227 0
-1157 1275 -1215 1224 0
-1157 1275 1215 0
1157 -1275 -1215 -1224 1234 0
1157 -1275 -1215 1224 0
1157 -1275 1215 0
-1158 1276 -1215 1238 0
-1158 1276 1215 0
1158 -1276 -1215 1223 0
1158 -1276 1215 0
-1159 1277 -1215 -1223 1229 0
-1159 1277 -1215 1223 0
-1159 1277 1215 0
1159 -1277 -1215 -1223 1236 0
1159 -1277 -1215 1223 0
1159 -1277 1215 0
-1026 1278 -1215 1224 0
-1026 1278 1215 0
1026 -1278 -1215 1228 0
1026 -1278 1215 0
-1160 1279 -1215 -1224 1229 0
-1160 1279 -1215 1224 0
-1160 1279 1215 0
1160 -1279 -1215 -1224 1236 0
1160 -1279 -1215 1224 0
1160 -1279 1215 0
-1161 1280 -1215 -1224 1226 0
-1161 1280 -1215 1224 0
-1161 1280 1215 0
1161 -1280 -1215 -1224 1233 0
1161 -1280 -1215 1224 0
1161 -1280 1215 0
-1162 1281 -1215 -1220 1230 0
-1162 1281 -1215 1220 0
-1162 1281 1215 0
1162 -1281 -1215 -1220 1237 0
1162 -1281 -1215 1220 0
1162 -1281 1215 0
-1030 1282 0
1030 -1282 -1215 1226 0
1030 -1282 1215 0
-1164 1283 -1215 -1220 1231 0
-1164 1283 -1215 1220 0
-1164 1283 1215 0
1164 -1283 -1215 -1220 1239 0
1164 -1283 -1215 1220 0
1164 -1283 1215 0
-1165 1284 -1215 -1221 1227 0
-1165 1284 -1215 1221 0
-1165 1284 1215 0
1165 -1284 -1215 -1221 1234 0
1165 -1284 -1215 1221 0
1165 -1284 1215 0
-1166 1285 -1215 -1220 1227 0
-1166 1285 -1215 1220 0
-1166 1285 1215 0
1166 -1285 -1215 -1220 1234 0
1166 -1285 -1215 1220 0
1166 -1285 1215 0
-1241 1296 1297 1298 1299 1300 0
-1296 -1297 0
-1296 -1298 0
-1296 -1299 0
-1296 -1300 0
-1297 -1298 0
-1297 -1299 0
-1297 -1300 0
-1298 -1299 0
-1298 -1300 0
-1299 -1300 0
-1241 1301 1302 1303 1304 1305 1306 1307 1308 0
-1301 -1302 0
-1301 -1303 0
-1301 -1304 0
-1301 -1305 0
-1301 -1306 0
-1301 -1307 0
-1301 -1308 0
-1302 -1303 0
-1302 -1304 0
-1302 -1305 0
-1302 -1306 0
-1302 -1307 0
-1302 -1308 0
-1303 -1304 0
-1303 -1305 0
-1303 -1306 0
-1303 -1307 0
-1303 -1308 0
-1304 -1305 0
-1304 -1306 0
-1304 -1307 0
-1304 -1308 0
-1305 -1306 0
-1305 -1307 0
-1305 -1308 0
-1306 -1307 0
-1306 -1308 0
-1307 -1308 0
-1241 1295 0
-1241 1287 0
-1242 1142 0
-1242 1262 0
-1243 1301 1302 1303 1304 1305 1306 1307 1308 0
-1301 -1302 0
-1301 -1303 0
-1301 -1304 0
-1301 -1305 0
-1301 -1306 0
-1301 -1307 0
-1301 -1308 0
-1302 -1303 0
-1302 -1304 0
-1302 -1305 0
-1302 -1306 0
-1302 -1307 0
-1302 -1308 0
-1303 -1304 0
-1303 -1305 0
-1303 -1306 0
-1303 -1307 0
-1303 -1308 0
-1304 -1305 0
-1304 -1306 0
-1304 -1307 0
-1304 -1308 0
-1305 -1306 0
-1305 -1307 0
-1305 -1308 0
-1306 -1307 0
-1306 -1308 0
-1307 -1308 0
-1243 1296 1297 1298 1299 1300 0
-1296 -1297 0
-1296 -1298 0
-1296 -1299 0
-1296 -1300 0
-1297 -1298 0
-1297 -1299 0
-1297 -1300 0
-1298 -1299 0
-1298 -1300 0
-1299 -1300 0
-1243 1293 0
-1243 1294 0
-1240 -1241 0
-1240 -1242 0
-1240 -1243 0
-1241 -1242 0
-1241 -1243 0
-1242 -1243 0
-1223 -1225 1286 -1260 0
-1223 -1230 1286 -1267 0
-1223 -1226 1286 -1247 0
-1221 -1229 1286 -1248 0
-1223 -1231 1286 -1249 0
-1220 -1226 1286 -1250 0
-1222 -1226 1286 -1263 0
-1224 -1229 1286 -1279 0
-1222 -1231 1286 -1252 0
-1223 -1228 1286 -1254 0
-1222 -1229 1286 -1272 0
-1220 -1229 1286 -1264 0
-1224 -1230 1286 -1255 0
-1224 -1226 1286 -1280 0
-1220 -1230 1286 -1281 0
-1223 -1227 1286 -1273 0
-1221 -1226 1286 -1274 0
-1224 -1225 1286 -1257 0
-1224 -1227 1286 -1275 0
-1221 -1231 1286 -1266 0
-1224 -1231 1286 -1259 0
-1223 -1229 1286 -1277 0
-1220 -1231 1286 -1283 0
-1221 -1227 1286 -1284 0
-1220 -1227 1286 -1285 0
-1296 -1287 1271 0
-1299 -1287 1258 0
-1297 -1287 1256 0
-1300 -1287 1278 0
-1298 -1287 1269 0
-1220 -1288 1268 0
-1224 -1288 1245 0
-1221 -1288 1246 0
-1222 -1288 1261 0
-1223 -1288 1276 0
-1225 -1289 1271 0
-1230 -1289 1256 0
-1226 -1289 1282 0
-1229 -1289 1262 0
-1228 -1289 1278 0
-1227 -1289 1269 0
-1231 -1289 1253 0
-1236 1290 -1270 0
-1235 1290 -1245 0
-1237 1290 -1246 0
-1233 1290 -1265 0
-1232 1290 -1268 0
-1234 1290 -1261 0
-1238 1290 -1276 0
-1239 1290 -1251 0
-1223 -1232 -1291 1260 0
-1223 -1237 -1291 1267 0
-1223 -1233 -1291 1247 0
-1221 -1236 -1291 1248 0
-1223 -1239 -1291 1249 0
-1220 -1233 -1291 1250 0
-1222 -1233 -1291 1263 0
-1224 -1236 -1291 1279 0
-1222 -1239 -1291 1252 0
-1223 -1235 -1291 1254 0
-1222 -1236 -1291 1272 0
-1220 -1236 -1291 1264 0
-1224 -1237 -1291 1255 0
-1224 -1233 -1291 1280 0
-1220 -1237 -1291 1281 0
-1223 -1234 -1291 1273 0
-1221 -1233 -1291 1274 0
-1224 -1232 -1291 1257 0
-1224 -1234 -1291 1275 0
-1221 -1239 -1291 1266 0
-1224 -1239 -1291 1259 0
-1223 -1236 -1291 1277 0
-1220 -1239 -1291 1283 0
-1221 -1234 -1291 1284 0
-1220 -1234 -1291 1285 0
-1220 1292 -1271 0
-1223 1292 -1258 0
-1221 1292 -1256 0
-1224 1292 -1278 0
-1222 1292 -1269 0
-1301 -1293 1271 0
-1306 -1293 1256 0
-1302 -1293 1282 0
-1307 -1293 1258 0
-1305 -1293 1262 0
-1304 -1293 1278 0
-1303 -1293 1269 0
-1308 -1293 1253 0
-1296 -1294 1163 0
-1299 -1294 1136 0
-1298 -1294 1130 0
-1297 -1294 1154 0
-1300 -1294 1138 0
-1302 -1295 1142 0
-1307 -1295 1136 0
-1308 -1295 1150 0
-1303 -1295 1130 0
-1306 -1295 1154 0
-1304 -1295 1138 0
-1305 -1295 1147 0
-1301 -1295 1163 0
-1309 1232 -1225 0
-1309 -1232 1225 0
-1309 1233 -1226 0
-1309 -1233 1226 0
-1309 1234 -1227 0
-1309 -1234 1227 0
-1309 1235 -1228 0
-1309 -1235 1228 0
-1309 1236 -1229 0
-1309 -1236 1229 0
-1309 1237 -1230 0
-1309 -1237 1230 0
-1309 1239 -1231 0
-1309 -1239 1231 0
-1232 -1225 1309 0
-1233 -1226 1309 0
-1234 -1227 1309 0
-1235 -1228 1309 0
-1236 -1229 1309 0
-1237 -1230 1309 0
-1239 -1231 1309 0
-1238 -1309 0
-1310 1232 -1220 0
-1310 -1232 1220 0
-1310 1237 -1221 0
-1310 -1237 1221 0
-1310 1234 -1222 0
-1310 -1234 1222 0
-1310 1238 -1223 0
-1310 -1238 1223 0
-1310 1235 -1224 0
-1310 -1235 1224 0
-1232 -1220 1310 0
-1237 -1221 1310 0
-1234 -1222 1310 0
-1238 -1223 1310 0
-1235 -1224 1310 0
-1236 -1310 0
-1233 -1310 0
-1239 -1310 0
-1215 -1290 1310 0
-1311 1220 -1225 0
-1311 -1220 1225 0
-1311 1221 -1230 0
-1311 -1221 1230 0
-1311 1222 -1227 0
-1311 -1222 1227 0
-1311 1224 -1228 0
-1311 -1224 1228 0
-1220 -1225 1311 0
-1221 -1230 1311 0
-1222 -1227 1311 0
-1224 -1228 1311 0
-1223 -1311 0
-1229 -1311 0
-1226 -1311 0
-1231 -1311 0
-1215 -1292 1311 0
-1215 1291 0
-1215 1289 0
-1215 1288 0
-1312 1225 -1232 0
-1312 -1225 1232 0
-1312 1226 -1233 0
-1312 -1226 1233 0
-1312 1227 -1234 0
-1312 -1227 1234 0
-1312 1228 -1235 0
-1312 -1228 1235 0
-1312 1229 -1236 0
-1312 -1229 1236 0
-1312 1230 -1237 0
-1312 -1230 1237 0
-1312 1231 -1239 0
-1312 -1231 1239 0
-1225 -1232 1312 0
-1226 -1233 1312 0
-1227 -1234 1312 0
-1228 -1235 1312 0
-1229 -1236 1312 0
-1230 -1237 1312 0
-1231 -1239 1312 0
-1238 -1312 0
-1215 -1286 1312 0
-1241 -1300 -1307 0
-1241 -1300 -1304 0
-1241 -1298 -1303 0
-1241 -1298 -1307 0
-1241 -1298 -1304 0
-1241 -1298 -1301 0
-1241 -1298 -1306 0
-1241 -1296 -1307 0
-1241 -1296 -1304 0
-1241 -1296 -1301 0
-1241 -1299 -1307 0
-1241 -1297 -1307 0
-1241 -1297 -1304 0
-1241 -1297 -1301 0
-1241 -1297 -1306 0
-1243 -1300 -1307 0
-1243 -1300 -1304 0
-1243 -1298 -1303 0
-1243 -1298 -1307 0
-1243 -1298 -1304 0
-1243 -1298 -1301 0
-1243 -1298 -1306 0
-1243 -1296 -1307 0
-1243 -1296 -1304 0
-1243 -1296 -1301 0
-1243 -1299 -1307 0
-1243 -1297 -1307 0
-1243 -1297 -1304 0
-1243 -1297 -1301 0
-1243 -1297 -1306 0
-1124 1241 1242 1243 0
-1123 1240 0
-1241 1124 0
-1242 1124 0
-1243 1124 0
-1240 1123 0
-1245 151 -1244 0
1245 -151 -1244 0
-1246 152 -1244 0
1246 -152 -1244 0
-1247 154 -1244 0
1247 -154 -1244 0
-1248 155 -1244 0
1248 -155 -1244 0
-1130 385 -1244 0
1130 -385 -1244 0
-1249 156 -1244 0
1249 -156 -1244 0
-1250 158 -1244 0
1250 -158 -1244 0
-1251 159 -1244 0
1251 -159 -1244 0
-1252 160 -1244 0
1252 -160 -1244 0
-1253 602 -1244 0
1253 -602 -1244 0
-1254 10 -1244 0
1254 -10 -1244 0
-1136 162 -1244 0
1136 -162 -1244 0
-1255 163 -1244 0
1255 -163 -1244 0
-1256 270 -1244 0
1256 -270 -1244 0
-1138 386 -1244 0
1138 -386 -1244 0
-1257 11 -1244 0
1257 -11 -1244 0
-1258 271 -1244 0
1258 -271 -1244 0
-1259 167 -1244 0
1259 -167 -1244 0
-1260 170 -1244 0
1260 -170 -1244 0
-1142 171 -1244 0
1142 -171 -1244 0
-1261 172 -1244 0
1261 -172 -1244 0
-1262 273 -1244 0
1262 -273 -1244 0
-1263 12 -1244 0
1263 -12 -1244 0
-1264 174 -1244 0
1264 -174 -1244 0
-1265 274 -1244 0
1265 -274 -1244 0
-1147 387 -1244 0
1147 -387 -1244 0
-1266 176 -1244 0
1266 -176 -1244 0
-1267 153 -1244 0
1267 -153 -1244 0
-1150 388 -1244 0
1150 -388 -1244 0
-1268 157 -1244 0
1268 -157 -1244 0
-1269 267 -1244 0
1269 -267 -1244 0
-1270 268 -1244 0
1270 -268 -1244 0
-1271 269 -1244 0
1271 -269 -1244 0
-1272 161 -1244 0
1272 -161 -1244 0
-1154 389 -1244 0
1154 -389 -1244 0
-1273 164 -1244 0
1273 -164 -1244 0
-1274 165 -1244 0
1274 -165 -1244 0
-1275 166 -1244 0
1275 -166 -1244 0
-1276 168 -1244 0
1276 -168 -1244 0
-1277 169 -1244 0
1277 -169 -1244 0
-1278 272 -1244 0
1278 -272 -1244 0
-1279 173 -1244 0
1279 -173 -1244 0
-1280 175 -1244 0
1280 -175 -1244 0
-1281 13 -1244 0
1281 -13 -1244 0
-1282 603 -1244 0
1282 -603 -1244 0
-1163 390 -1244 0
1163 -390 -1244 0
-1283 177 -1244 0
1283 -177 -1244 0
-1284 14 -1244 0
1284 -14 -1244 0
-1285 178 -1244 0
1285 -178 -1244 0
-1179 1313 0
-1313 1179 0
a 1244 0
